
Gurobi 6.5.2 (linux64) logging started Tue Mar 14 21:17:40 2017


Gurobi 6.5.2 (linux64) logging started Tue Mar 14 21:17:40 2017

Optimize a model with 41 rows, 153 columns and 307 nonzeros
Coefficient statistics:
  Matrix range    [1e+00, 2e+00]
  Objective range [2e+00, 1e+02]
  Bounds range    [1e+00, 1e+00]
  RHS range       [1e+00, 1e+00]
Presolve removed 21 rows and 20 columns
Presolve time: 0.00s
Presolved: 20 rows, 133 columns, 266 nonzeros
Variable types: 0 continuous, 133 integer (133 binary)

Root relaxation: objective 4.790000e+02, 28 iterations, 0.00 seconds

    Nodes    |    Current Node    |     Objective Bounds      |     Work
 Expl Unexpl |  Obj  Depth IntInf | Incumbent    BestBd   Gap | It/Node Time

     0     0  479.00000    0    6          -  479.00000      -     -    0s
     0     0  489.40000    0   16          -  489.40000      -     -    0s
     0     0  491.20000    0   18          -  491.20000      -     -    0s
H    0     0                     562.0000000  491.20000  12.6%     -    0s
H    0     0                     545.0000000  491.20000  9.87%     -    0s
     0     0  491.25000    0   15  545.00000  491.25000  9.86%     -    0s
     0     0  491.25000    0   15  545.00000  491.25000  9.86%     -    0s
     0     0  491.25000    0   17  545.00000  491.25000  9.86%     -    0s
     0     0  494.25000    0   16  545.00000  494.25000  9.31%     -    0s
H    0     0                     504.0000000  494.25000  1.93%     -    0s
*    0     0               0     495.0000000  495.00000  0.00%     -    0s

Cutting planes:
  Gomory: 2
  Lazy constraints: 5

Explored 0 nodes (89 simplex iterations) in 0.02 seconds
Thread count was 8 (of 8 available processors)

Optimal solution found (tolerance 1.00e-04)
Best objective 4.950000000000e+02, best bound 4.950000000000e+02, gap 0.0%
